(set-info :source |printed by MathSAT|)
(declare-fun call_mesi.ite5 () Int)
(declare-fun call_mesi.garde_me4 () Bool)
(declare-fun param_etat_me4 () Bool)
(declare-fun call_mesi.ite19 () Int)
(declare-fun call_mesi.ite9 () Int)
(declare-fun call_mesi.flby4 () Int)
(declare-fun call_mesi.ite28 () Int)
(declare-fun call_mesi.ite13 () Int)
(declare-fun shared_me () Int)
(declare-fun call_mesi.flby3 () Int)
(declare-fun call_mesi.ite26 () Int)
(declare-fun call_mesi.ite () Int)
(declare-fun call_mesi.flby2 () Int)
(declare-fun call_Abs.ite () Int)
(declare-fun call_mesi.ite32 () Int)
(declare-fun call_mesi.flby () Int)
(declare-fun call_mesi.ite10 () Int)
(declare-fun call_mesi.ite23 () Int)
(declare-fun call_mesi.ite11 () Int)
(declare-fun call_mesi.shared_me () Int)
(declare-fun call_mesi.ite29 () Int)
(declare-fun call_mesi.ite2 () Int)
(declare-fun call_mesi.ite14 () Int)
(declare-fun call_mesi.ite7 () Int)
(declare-fun call_mesi.ite6 () Int)
(declare-fun env () Bool)
(declare-fun call_mesi.invalid_me () Int)
(declare-fun call_Abs2.ite () Int)
(declare-fun call_mesi.ite17 () Int)
(declare-fun call_excludes4.excludes () Bool)
(declare-fun call_mesi.garde_me3 () Bool)
(declare-fun call_mesi.ite12 () Int)
(declare-fun param_etat_me1 () Bool)
(declare-fun call_mesi.ite21 () Int)
(declare-fun call_mesi.ite18 () Int)
(declare-fun call_mesi.exclusive_me () Int)
(declare-fun call_mesi.ite16 () Int)
(declare-fun call_Abs3.Abs () Int)
(declare-fun call_mesi.ite22 () Int)
(declare-fun modified_me () Int)
(declare-fun call_Abs3.ite () Int)
(declare-fun call_mesi.ite30 () Int)
(declare-fun call_mesi.modified_me () Int)
(declare-fun call_mesi.ite8 () Int)
(declare-fun call_Abs.Abs () Int)
(declare-fun call_mesi.ite25 () Int)
(declare-fun call_mesi.ite3 () Int)
(declare-fun call_mesi.garde_me1 () Bool)
(declare-fun call_mesi.ite4 () Int)
(declare-fun call_mesi.ite27 () Int)
(declare-fun call_Abs2.Abs () Int)
(declare-fun param_etat_me2 () Bool)
(declare-fun param_etat_me3 () Bool)
(declare-fun call_mesi.ite31 () Int)
(declare-fun call_mesi.ite24 () Int)
(declare-fun call_Sofar.flby () Bool)
(declare-fun call_Abs4.Abs () Int)
(declare-fun _OK_ () Bool)
(declare-fun exclusive_me () Int)
(declare-fun call_mesi.ite20 () Int)
(declare-fun call_Sofar.Sofar () Bool)
(declare-fun invalid_me () Int)
(declare-fun call_mesi.ite15 () Int)
(declare-fun call_Abs4.ite () Int)
(define-fun .def_970 () Bool (= call_excludes4.excludes call_Sofar.flby))
(define-fun .def_968 () Bool (= call_mesi.flby4 3))
(define-fun .def_966 () Bool (= call_mesi.flby3 0))
(define-fun .def_964 () Bool (= call_mesi.flby2 0))
(define-fun .def_962 () Bool (= call_mesi.flby 0))
(define-fun .def_958 () Bool (= call_mesi.ite20 0))
(define-fun .def_953 () Bool (not call_mesi.garde_me4))
(define-fun .def_959 () Bool (or .def_953 .def_958))
(define-fun .def_955 () Bool (= call_mesi.ite4 0))
(define-fun .def_956 () Bool (or .def_953 .def_955))
(define-fun .def_951 () Bool (= call_mesi.ite12 1))
(define-fun .def_954 () Bool (or .def_951 .def_953))
(define-fun .def_957 () Bool (and .def_954 .def_956))
(define-fun .def_960 () Bool (and .def_957 .def_959))
(define-fun .def_947 () Bool (= call_mesi.ite19 0))
(define-fun .def_942 () Bool (not call_mesi.garde_me3))
(define-fun .def_948 () Bool (or .def_942 .def_947))
(define-fun .def_944 () Bool (= call_mesi.ite3 0))
(define-fun .def_945 () Bool (or .def_942 .def_944))
(define-fun .def_940 () Bool (= call_mesi.ite11 1))
(define-fun .def_943 () Bool (or .def_940 .def_942))
(define-fun .def_946 () Bool (and .def_943 .def_945))
(define-fun .def_949 () Bool (and .def_946 .def_948))
(define-fun .def_936 () Bool (= call_mesi.ite 0))
(define-fun .def_934 () Bool (not call_mesi.garde_me1))
(define-fun .def_937 () Bool (or .def_934 .def_936))
(define-fun .def_932 () Bool (= call_mesi.ite9 0))
(define-fun .def_935 () Bool (or .def_932 .def_934))
(define-fun .def_938 () Bool (and .def_935 .def_937))
(define-fun .def_929 () Bool (= call_mesi.ite29 call_mesi.ite28))
(define-fun .def_918 () Bool (not param_etat_me4))
(define-fun .def_930 () Bool (or .def_918 .def_929))
(define-fun .def_925 () Bool (= call_mesi.ite21 call_mesi.ite20))
(define-fun .def_926 () Bool (or .def_918 .def_925))
(define-fun .def_921 () Bool (= call_mesi.ite5 call_mesi.ite4))
(define-fun .def_922 () Bool (or .def_918 .def_921))
(define-fun .def_917 () Bool (= call_mesi.ite13 call_mesi.ite12))
(define-fun .def_919 () Bool (or .def_917 .def_918))
(define-fun .def_923 () Bool (and .def_919 .def_922))
(define-fun .def_927 () Bool (and .def_923 .def_926))
(define-fun .def_931 () Bool (and .def_927 .def_930))
(define-fun .def_939 () Bool (and .def_931 .def_938))
(define-fun .def_950 () Bool (and .def_939 .def_949))
(define-fun .def_961 () Bool (and .def_950 .def_960))
(define-fun .def_963 () Bool (and .def_961 .def_962))
(define-fun .def_965 () Bool (and .def_963 .def_964))
(define-fun .def_967 () Bool (and .def_965 .def_966))
(define-fun .def_969 () Bool (and .def_967 .def_968))
(define-fun .def_971 () Bool (and .def_969 .def_970))
(define-fun .def_914 () Bool (= call_Abs4.Abs call_Abs4.ite))
(define-fun .def_912 () Bool (= call_Abs3.Abs call_Abs3.ite))
(define-fun .def_910 () Bool (= call_Abs2.Abs call_Abs2.ite))
(define-fun .def_908 () Bool (= call_Abs.Abs call_Abs.ite))
(define-fun .def_906 () Bool (= call_Sofar.Sofar call_Sofar.flby))
(define-fun .def_899 () Bool (and param_etat_me3 param_etat_me4))
(define-fun .def_897 () Bool (and param_etat_me2 param_etat_me4))
(define-fun .def_895 () Bool (and param_etat_me3 param_etat_me2))
(define-fun .def_892 () Bool (and param_etat_me2 param_etat_me1))
(define-fun .def_891 () Bool (and param_etat_me3 param_etat_me1))
(define-fun .def_893 () Bool (or .def_891 .def_892))
(define-fun .def_890 () Bool (and param_etat_me1 param_etat_me4))
(define-fun .def_894 () Bool (or .def_890 .def_893))
(define-fun .def_896 () Bool (or .def_894 .def_895))
(define-fun .def_898 () Bool (or .def_896 .def_897))
(define-fun .def_900 () Bool (or .def_898 .def_899))
(define-fun .def_901 () Bool (not .def_900))
(define-fun .def_903 () Bool (= .def_901 call_excludes4.excludes))
(define-fun .def_887 () Bool (= call_mesi.invalid_me call_mesi.flby4))
(define-fun .def_884 () Bool (= call_mesi.shared_me call_mesi.flby3))
(define-fun .def_881 () Bool (= call_mesi.exclusive_me call_mesi.flby2))
(define-fun .def_878 () Bool (= call_mesi.modified_me call_mesi.flby))
(define-fun .def_873 () Bool (= call_mesi.ite31 call_mesi.ite32))
(define-fun .def_874 () Bool (or param_etat_me1 .def_873))
(define-fun .def_870 () Bool (= call_mesi.ite25 call_mesi.ite32))
(define-fun .def_849 () Bool (not param_etat_me1))
(define-fun .def_871 () Bool (or .def_849 .def_870))
(define-fun .def_865 () Bool (= call_mesi.ite23 call_mesi.ite24))
(define-fun .def_866 () Bool (or param_etat_me1 .def_865))
(define-fun .def_862 () Bool (= call_mesi.ite17 call_mesi.ite24))
(define-fun .def_863 () Bool (or .def_849 .def_862))
(define-fun .def_857 () Bool (= call_mesi.ite15 call_mesi.ite16))
(define-fun .def_858 () Bool (or param_etat_me1 .def_857))
(define-fun .def_854 () Bool (= call_mesi.ite16 call_mesi.ite9))
(define-fun .def_855 () Bool (or .def_849 .def_854))
(define-fun .def_848 () Bool (= call_mesi.ite8 call_mesi.ite))
(define-fun .def_850 () Bool (or .def_848 .def_849))
(define-fun .def_844 () Bool (= call_mesi.ite7 call_mesi.ite8))
(define-fun .def_846 () Bool (or .def_844 param_etat_me1))
(define-fun .def_851 () Bool (and .def_846 .def_850))
(define-fun .def_856 () Bool (and .def_851 .def_855))
(define-fun .def_859 () Bool (and .def_856 .def_858))
(define-fun .def_864 () Bool (and .def_859 .def_863))
(define-fun .def_867 () Bool (and .def_864 .def_866))
(define-fun .def_872 () Bool (and .def_867 .def_871))
(define-fun .def_875 () Bool (and .def_872 .def_874))
(define-fun .def_841 () Bool (= env call_Sofar.Sofar))
(define-fun .def_837 () Bool (= invalid_me call_mesi.invalid_me))
(define-fun .def_832 () Int (+ invalid_me call_Abs4.ite))
(define-fun .def_833 () Bool (= .def_832 0))
(define-fun .def_829 () Bool (<= 0 invalid_me))
(define-fun .def_834 () Bool (or .def_829 .def_833))
(define-fun .def_830 () Bool (not .def_829))
(define-fun .def_828 () Bool (= invalid_me call_Abs4.ite))
(define-fun .def_831 () Bool (or .def_828 .def_830))
(define-fun .def_835 () Bool (and .def_831 .def_834))
(define-fun .def_838 () Bool (and .def_835 .def_837))
(define-fun .def_823 () Bool (= shared_me call_mesi.shared_me))
(define-fun .def_818 () Int (+ shared_me call_Abs3.ite))
(define-fun .def_819 () Bool (= .def_818 0))
(define-fun .def_815 () Bool (<= 0 shared_me))
(define-fun .def_820 () Bool (or .def_815 .def_819))
(define-fun .def_816 () Bool (not .def_815))
(define-fun .def_814 () Bool (= shared_me call_Abs3.ite))
(define-fun .def_817 () Bool (or .def_814 .def_816))
(define-fun .def_821 () Bool (and .def_817 .def_820))
(define-fun .def_824 () Bool (and .def_821 .def_823))
(define-fun .def_809 () Bool (= exclusive_me call_mesi.exclusive_me))
(define-fun .def_804 () Int (+ exclusive_me call_Abs2.ite))
(define-fun .def_805 () Bool (= .def_804 0))
(define-fun .def_801 () Bool (<= 0 exclusive_me))
(define-fun .def_806 () Bool (or .def_801 .def_805))
(define-fun .def_802 () Bool (not .def_801))
(define-fun .def_800 () Bool (= exclusive_me call_Abs2.ite))
(define-fun .def_803 () Bool (or .def_800 .def_802))
(define-fun .def_807 () Bool (and .def_803 .def_806))
(define-fun .def_810 () Bool (and .def_807 .def_809))
(define-fun .def_795 () Bool (= modified_me call_mesi.modified_me))
(define-fun .def_790 () Int (+ modified_me call_Abs.ite))
(define-fun .def_791 () Bool (= .def_790 0))
(define-fun .def_787 () Bool (<= 0 modified_me))
(define-fun .def_792 () Bool (or .def_787 .def_791))
(define-fun .def_788 () Bool (not .def_787))
(define-fun .def_786 () Bool (= modified_me call_Abs.ite))
(define-fun .def_789 () Bool (or .def_786 .def_788))
(define-fun .def_793 () Bool (and .def_789 .def_792))
(define-fun .def_796 () Bool (and .def_793 .def_795))
(define-fun .def_777 () Int (+ call_Abs3.Abs call_Abs4.Abs))
(define-fun .def_778 () Int (+ call_Abs2.Abs .def_777))
(define-fun .def_779 () Int (+ call_Abs.Abs .def_778))
(define-fun .def_780 () Bool (<= .def_779 3))
(define-fun .def_769 () Bool (not env))
(define-fun .def_781 () Bool (or .def_769 .def_780))
(define-fun .def_782 () Bool (= _OK_ .def_781))
(define-fun .def_763 () Bool (= call_mesi.ite30 call_mesi.ite31))
(define-fun .def_764 () Bool (or param_etat_me2 .def_763))
(define-fun .def_760 () Bool (= call_mesi.ite26 call_mesi.ite31))
(define-fun .def_739 () Bool (not param_etat_me2))
(define-fun .def_761 () Bool (or .def_739 .def_760))
(define-fun .def_755 () Bool (= call_mesi.ite22 call_mesi.ite23))
(define-fun .def_756 () Bool (or param_etat_me2 .def_755))
(define-fun .def_752 () Bool (= call_mesi.ite18 call_mesi.ite23))
(define-fun .def_753 () Bool (or .def_739 .def_752))
(define-fun .def_747 () Bool (= call_mesi.ite14 call_mesi.ite15))
(define-fun .def_748 () Bool (or param_etat_me2 .def_747))
(define-fun .def_744 () Bool (= call_mesi.ite10 call_mesi.ite15))
(define-fun .def_745 () Bool (or .def_739 .def_744))
(define-fun .def_738 () Bool (= call_mesi.ite7 call_mesi.ite2))
(define-fun .def_740 () Bool (or .def_738 .def_739))
(define-fun .def_734 () Bool (= call_mesi.ite6 call_mesi.ite7))
(define-fun .def_736 () Bool (or .def_734 param_etat_me2))
(define-fun .def_741 () Bool (and .def_736 .def_740))
(define-fun .def_746 () Bool (and .def_741 .def_745))
(define-fun .def_749 () Bool (and .def_746 .def_748))
(define-fun .def_754 () Bool (and .def_749 .def_753))
(define-fun .def_757 () Bool (and .def_754 .def_756))
(define-fun .def_762 () Bool (and .def_757 .def_761))
(define-fun .def_765 () Bool (and .def_762 .def_764))
(define-fun .def_730 () Bool (= call_mesi.ite30 call_mesi.ite29))
(define-fun .def_731 () Bool (or param_etat_me3 .def_730))
(define-fun .def_726 () Bool (= call_mesi.ite27 call_mesi.ite30))
(define-fun .def_703 () Bool (not param_etat_me3))
(define-fun .def_727 () Bool (or .def_703 .def_726))
(define-fun .def_721 () Bool (= call_mesi.ite22 call_mesi.ite21))
(define-fun .def_722 () Bool (or param_etat_me3 .def_721))
(define-fun .def_717 () Bool (= call_mesi.ite22 call_mesi.ite19))
(define-fun .def_718 () Bool (or .def_703 .def_717))
(define-fun .def_712 () Bool (= call_mesi.ite14 call_mesi.ite13))
(define-fun .def_713 () Bool (or param_etat_me3 .def_712))
(define-fun .def_708 () Bool (= call_mesi.ite14 call_mesi.ite11))
(define-fun .def_709 () Bool (or .def_703 .def_708))
(define-fun .def_702 () Bool (= call_mesi.ite6 call_mesi.ite3))
(define-fun .def_704 () Bool (or .def_702 .def_703))
(define-fun .def_698 () Bool (= call_mesi.ite6 call_mesi.ite5))
(define-fun .def_700 () Bool (or .def_698 param_etat_me3))
(define-fun .def_705 () Bool (and .def_700 .def_704))
(define-fun .def_710 () Bool (and .def_705 .def_709))
(define-fun .def_714 () Bool (and .def_710 .def_713))
(define-fun .def_719 () Bool (and .def_714 .def_718))
(define-fun .def_723 () Bool (and .def_719 .def_722))
(define-fun .def_728 () Bool (and .def_723 .def_727))
(define-fun .def_732 () Bool (and .def_728 .def_731))
(define-fun .def_766 () Bool (and .def_732 .def_765))
(define-fun .def_783 () Bool (and .def_766 .def_782))
(define-fun .def_797 () Bool (and .def_783 .def_796))
(define-fun .def_811 () Bool (and .def_797 .def_810))
(define-fun .def_825 () Bool (and .def_811 .def_824))
(define-fun .def_839 () Bool (and .def_825 .def_838))
(define-fun .def_842 () Bool (and .def_839 .def_841))
(define-fun .def_876 () Bool (and .def_842 .def_875))
(define-fun .def_879 () Bool (and .def_876 .def_878))
(define-fun .def_882 () Bool (and .def_879 .def_881))
(define-fun .def_885 () Bool (and .def_882 .def_884))
(define-fun .def_888 () Bool (and .def_885 .def_887))
(define-fun .def_904 () Bool (and .def_888 .def_903))
(define-fun .def_907 () Bool (and .def_904 .def_906))
(define-fun .def_909 () Bool (and .def_907 .def_908))
(define-fun .def_911 () Bool (and .def_909 .def_910))
(define-fun .def_913 () Bool (and .def_911 .def_912))
(define-fun .def_915 () Bool (and .def_913 .def_914))
(define-fun .def_972 () Bool (and .def_915 .def_971))
(assert .def_972)
